\ENCODING=ISO-8859-1
\Problem name: ExecModel

Minimize
 obj: x(0)(1) + 1000 x(0)(2) + x(0)(3) + 1000 x(0)(4) + 1000 x(0)(5)
      + 1000 x(1)(0) + x(1)(2) + 1000 x(1)(3) + 1000 x(1)(4) + x(1)(5)
      + x(2)(0) + 1000 x(2)(1) + 1000 x(2)(3) + 1000 x(2)(4) + 1000 x(2)(5)
      + 1000 x(3)(0) + x(3)(1) + 1000 x(3)(2) + x(3)(4) + 1000 x(3)(5)
      + x(4)(0) + 1000 x(4)(1) + 1000 x(4)(2) + 1000 x(4)(3) + x(4)(5)
      + x(5)(0) + 1000 x(5)(1) + x(5)(2) + 3 x(5)(3) + 1000 x(5)(4)
Subject To
 c1:  x(0)(1) + x(2)(1) + x(3)(1) + x(4)(1) + x(5)(1)  = 1
 c2:  x(0)(2) + x(1)(2) + x(3)(2) + x(4)(2) + x(5)(2)  = 1
 c3:  x(0)(3) + x(1)(3) + x(2)(3) + x(4)(3) + x(5)(3)  = 1
 c4:  x(0)(4) + x(1)(4) + x(2)(4) + x(3)(4) + x(5)(4)  = 1
 c5:  x(0)(5) + x(1)(5) + x(2)(5) + x(3)(5) + x(4)(5)  = 1
 c6:  x(0)(1) - x(1)(2) - x(1)(3) - x(1)(4) - x(1)(5) + x(2)(1) + x(3)(1)
      + x(4)(1) + x(5)(1) >= 0
 c7:  x(0)(2) + x(1)(2) - x(2)(1) - x(2)(3) - x(2)(4) - x(2)(5) + x(3)(2)
      + x(4)(2) + x(5)(2) >= 0
 c8:  x(0)(3) + x(1)(3) + x(2)(3) - x(3)(1) - x(3)(2) - x(3)(4) - x(3)(5)
      + x(4)(3) + x(5)(3) >= 0
 c9:  x(0)(4) + x(1)(4) + x(2)(4) + x(3)(4) - x(4)(1) - x(4)(2) - x(4)(3)
      - x(4)(5) + x(5)(4) >= 0
 c10: x(0)(5) + x(1)(5) + x(2)(5) + x(3)(5) + x(4)(5) - x(5)(1) - x(5)(2)
      - x(5)(3) - x(5)(4) >= 0
 c11: x(0)(1) + x(1)(0) <= 1
 c12: x(0)(2) + x(2)(0) <= 1
 c13: x(0)(3) + x(3)(0) <= 1
 c14: x(0)(4) + x(4)(0) <= 1
 c15: x(0)(5) + x(5)(0) <= 1
 c16: x(0)(1) + x(1)(0) <= 1
 c17: x(1)(2) + x(2)(1) <= 1
 c18: x(1)(3) + x(3)(1) <= 1
 c19: x(1)(4) + x(4)(1) <= 1
 c20: x(1)(5) + x(5)(1) <= 1
 c21: x(0)(2) + x(2)(0) <= 1
 c22: x(1)(2) + x(2)(1) <= 1
 c23: x(2)(3) + x(3)(2) <= 1
 c24: x(2)(4) + x(4)(2) <= 1
 c25: x(2)(5) + x(5)(2) <= 1
 c26: x(0)(3) + x(3)(0) <= 1
 c27: x(1)(3) + x(3)(1) <= 1
 c28: x(2)(3) + x(3)(2) <= 1
 c29: x(3)(4) + x(4)(3) <= 1
 c30: x(3)(5) + x(5)(3) <= 1
 c31: x(0)(4) + x(4)(0) <= 1
 c32: x(1)(4) + x(4)(1) <= 1
 c33: x(2)(4) + x(4)(2) <= 1
 c34: x(3)(4) + x(4)(3) <= 1
 c35: x(4)(5) + x(5)(4) <= 1
 c36: x(0)(5) + x(5)(0) <= 1
 c37: x(1)(5) + x(5)(1) <= 1
 c38: x(2)(5) + x(5)(2) <= 1
 c39: x(3)(5) + x(5)(3) <= 1
 c40: x(4)(5) + x(5)(4) <= 1
 c41: x(1)(0) + x(2)(0) + x(3)(0) + x(4)(0) + x(5)(0)  = 0
 c42: 10 x(1)(2) + 5 x(2)(1) + u(1) - u(2) <= 8
 c43: 10 x(1)(3) + 2 x(3)(1) + u(1) - u(3) <= 5
 c44: 10 x(1)(4) + 5 x(4)(1) + u(1) - u(4) <= 8
 c45: 10 x(1)(5) + x(5)(1) + u(1) - u(5) <= 4
 c46: 5 x(1)(2) + 10 x(2)(1) - u(1) + u(2) <= 7
 c47: 10 x(2)(3) + 3 x(3)(2) + u(2) - u(3) <= 5
 c48: 10 x(2)(4) + 6 x(4)(2) + u(2) - u(4) <= 8
 c49: 10 x(2)(5) + 2 x(5)(2) + u(2) - u(5) <= 4
 c50: 2 x(1)(3) + 10 x(3)(1) - u(1) + u(3) <= 7
 c51: 3 x(2)(3) + 10 x(3)(2) - u(2) + u(3) <= 8
 c52: 10 x(3)(4) + 3 x(4)(3) + u(3) - u(4) <= 8
 c53: 10 x(3)(5) - x(5)(3) + u(3) - u(5) <= 4
 c54: 5 x(1)(4) + 10 x(4)(1) - u(1) + u(4) <= 7
 c55: 6 x(2)(4) + 10 x(4)(2) - u(2) + u(4) <= 8
 c56: 3 x(3)(4) + 10 x(4)(3) - u(3) + u(4) <= 5
 c57: 10 x(4)(5) + 2 x(5)(4) + u(4) - u(5) <= 4
 c58: x(1)(5) + 10 x(5)(1) - u(1) + u(5) <= 7
 c59: 2 x(2)(5) + 10 x(5)(2) - u(2) + u(5) <= 8
 c60: - x(3)(5) + 10 x(5)(3) - u(3) + u(5) <= 5
 c61: 2 x(4)(5) + 10 x(5)(4) - u(4) + u(5) <= 8
 c62: - 2 x(2)(1) - 5 x(3)(1) - 2 x(4)(1) - 6 x(5)(1) + u(1) >= 3
 c63: - 3 x(1)(2) - 5 x(3)(2) - 2 x(4)(2) - 6 x(5)(2) + u(2) >= 2
 c64: - 3 x(1)(3) - 2 x(2)(3) - 2 x(4)(3) - 6 x(5)(3) + u(3) >= 5
 c65: - 3 x(1)(4) - 2 x(2)(4) - 5 x(3)(4) - 6 x(5)(4) + u(4) >= 2
 c66: - 3 x(1)(5) - 2 x(2)(5) - 5 x(3)(5) - 2 x(4)(5) + u(5) >= 6
 c67: x(0)(1) + 2 x(1)(2) + 5 x(1)(3) + 2 x(1)(4) + 6 x(1)(5) + u(1) <= 10
 c68: 2 x(0)(2) + 3 x(2)(1) + 5 x(2)(3) + 2 x(2)(4) + 6 x(2)(5) + u(2) <= 10
 c69: - x(0)(3) + 3 x(3)(1) + 2 x(3)(2) + 2 x(3)(4) + 6 x(3)(5) + u(3) <= 10
 c70: 2 x(0)(4) + 3 x(4)(1) + 2 x(4)(2) + 5 x(4)(3) + 6 x(4)(5) + u(4) <= 10
 c71: - x(0)(5) + 3 x(5)(1) + 2 x(5)(2) + 5 x(5)(3) + 2 x(5)(4) + u(5) <= 10
 c72: u(0)  = 0
 c73: 1001 x(0)(1) >= 0
 c74: 1001 x(0)(2) >= -999
 c75: 1001 x(0)(3) >= 2
 c76: 1001 x(0)(4) >= -999
 c77: 1001 x(0)(5) >= -999
 c78: x(0)(1) + x(0)(2) + x(0)(3) + x(0)(4) + x(0)(5) >= 2
Bounds
 0 <= x(0)(1) <= 1
 0 <= x(0)(2) <= 1
 0 <= x(0)(3) <= 1
 0 <= x(0)(4) <= 1
 0 <= x(0)(5) <= 1
 0 <= x(1)(0) <= 1
 0 <= x(1)(2) <= 1
 0 <= x(1)(3) <= 1
 0 <= x(1)(4) <= 1
 0 <= x(1)(5) <= 1
 0 <= x(2)(0) <= 1
 0 <= x(2)(1) <= 1
 0 <= x(2)(3) <= 1
 0 <= x(2)(4) <= 1
 0 <= x(2)(5) <= 1
 0 <= x(3)(0) <= 1
 0 <= x(3)(1) <= 1
 0 <= x(3)(2) <= 1
 0 <= x(3)(4) <= 1
 0 <= x(3)(5) <= 1
 0 <= x(4)(0) <= 1
 0 <= x(4)(1) <= 1
 0 <= x(4)(2) <= 1
 0 <= x(4)(3) <= 1
 0 <= x(4)(5) <= 1
 0 <= x(5)(0) <= 1
 0 <= x(5)(1) <= 1
 0 <= x(5)(2) <= 1
 0 <= x(5)(3) <= 1
 0 <= x(5)(4) <= 1
Binaries
 x(0)(1)  x(0)(2)  x(0)(3)  x(0)(4)  x(0)(5)  x(1)(0)  x(1)(2)  x(1)(3) 
 x(1)(4)  x(1)(5)  x(2)(0)  x(2)(1)  x(2)(3)  x(2)(4)  x(2)(5)  x(3)(0) 
 x(3)(1)  x(3)(2)  x(3)(4)  x(3)(5)  x(4)(0)  x(4)(1)  x(4)(2)  x(4)(3) 
 x(4)(5)  x(5)(0)  x(5)(1)  x(5)(2)  x(5)(3)  x(5)(4) 
End
